NAME: tsp15
TYPE: TSP
COMMENT: 15-city test instance
DIMENSION: 15
EDGE_WEIGHT_TYPE: EUC_2D
NODE_COORD_SECTION
1 38 52
2 168 91
3 70 154
4 132 28
5 185 152
6 20 100
7 155 60
8 90 185
9 45 30
10 120 170
11 200 50
12 75 80
13 140 120
14 60 200
15 180 20
EOF
